1607
8 35 87 18 69 78 29 14 98 47 92 21 34 82 20 71 3 99 93 5 57 38 42 4 89 37 88 1 63 26 95 16 58 45 68 49 23 91 31 84 7 54 15 24 90 41 11 62 44 77 55 6 48 33 28 61 46 85 81 50 40 80 32 67 51 79 43 52 19 25 86 75 76 30 9 64 70 27 13 65 56 66 10 2 72 97 53 36 96 83 73 74 94 39 12 22 17 59 60 
